TERM = { '.', s0, s10, s5, s6, s7, s9, s11};
null = '.';
s = 13;
n = 6;
min = 9;
N0 = 0;
ZEROARYOP = {};
zeroout = [];
zerogas = [];
zerosz =  [];
zerolb =  [];
zeroub =  [];
N1 = 0;
UNARYOP = {};
unin =  [];
unout = [];
ungas = [];
unsz =  [];
unlb =  [];
unub =  [];
N2 = 1;
BINARYOP = { ADD_1 };
binin1 = [s0 ];
binin2 = [s0 ];
binout = [s7 ];
bincomm = [true ];
bingas = [3 ];
binsz = [1 ];
binlb = [ 1 ];
binub = [ 13 ];
NA = 0;
ASSOCIATIVEADDOP = {};
naddin =  [];
addin =  [||];
addout = [];
addcomm = [];
addgas = [];
addsz =  [];
addlb =  [];
addub =  [];
NPUSH = 2;
PUSHOP = { 'PUSH [tag]_0', 'PUSH [tag]_1' };
pushout = [ s10, s5 ];
pushgas = [ 3, 3 ];
pushsz = [ 3, 3 ];
pushlb = [ 1, 1 ];
pushub = [ 13, 13 ];
NSTORE = 0;
STOROP = {};
storin1 =  [];
storin2 =  [];
storlb =  [];
storub =  [];
storgas = [];
storsz = [];
DUP_ENUM = { DUP1, DUP2, DUP3, DUP4, DUP5};
SWAP_ENUM = { SWAP1, SWAP2, SWAP3, SWAP4, SWAP5};
startstack = [ s0, null, null, null, null, null ];
endstack = [ s5, s6, s7, s10, s0, null ];
lib = true;
order_output = [| s6, s7, 1 | s5, s6, 1 |];;
m_dep_n = 0;
memory_dependences = [| |];
s_dep_n = 0;
store_dependences = [| |];
